NAME : traveling-santa-2018-prime-paths.30789.tour
COMMENT : Length = 30789
COMMENT : Found by LKH [Keld Helsgaun] Sun Jun 12 19:59:40 2022
TYPE : TOUR
DIMENSION : 100
TOUR_SECTION
1
54
91
20
64
67
8
3
33
87
47
40
94
49
85
45
75
11
62
19
71
16
48
27
81
99
73
68
74
37
30
97
14
90
28
52
76
89
5
56
51
59
69
23
96
35
9
61
39
93
100
57
25
2
80
22
42
12
92
21
79
86
72
36
46
83
66
77
41
65
55
29
13
34
17
4
44
10
7
95
26
32
70
78
53
15
38
50
88
84
31
58
6
24
98
63
18
60
43
82
-1
EOF
